; Copyright (c) 2026 The RIINA Authors. All rights reserved.
; Auto-generated from 02_FORMAL/coq/domains/MobileBridgeVerification.v (32 validations)
; Generated by scripts/generate-full-stack.py
;
; Translation Validation for MobileBridgeVerification
; Layer 9: Verifies compiler backend preserves formal semantics.
; Each assertion checks source IR ≡ target code for a proven property.

(set-logic QF_LIA)
(set-option :produce-models true)

; IR node representation
(declare-sort IRNode 0)
(declare-sort TargetNode 0)

; cap_allows: source semantics (matches Coq)
(declare-fun source_cap_allows () Bool)
(declare-fun target_cap_allows () Bool)
(assert (= source_cap_allows target_cap_allows))

; bridge_call_safe: source semantics (matches Coq)
(declare-fun source_bridge_call_safe () Bool)
(declare-fun target_bridge_call_safe () Bool)
(assert (= source_bridge_call_safe target_bridge_call_safe))

; error_safe: source semantics (matches Coq)
(declare-fun source_error_safe () Bool)
(declare-fun target_error_safe () Bool)
(assert (= source_error_safe target_error_safe))

; no_secret_in_error: source semantics (matches Coq)
(declare-fun source_no_secret_in_error () Bool)
(declare-fun target_no_secret_in_error () Bool)
(assert (= source_no_secret_in_error target_no_secret_in_error))

; c_to_jni_string: source semantics (matches Coq)
(declare-fun source_c_to_jni_string () Bool)
(declare-fun target_c_to_jni_string () Bool)
(assert (= source_c_to_jni_string target_c_to_jni_string))

; jni_to_c_string: source semantics (matches Coq)
(declare-fun source_jni_to_c_string () Bool)
(declare-fun target_jni_to_c_string () Bool)
(assert (= source_jni_to_c_string target_jni_to_c_string))

; swift_value_tag: source semantics (matches Coq)
(declare-fun source_swift_value_tag () Bool)
(declare-fun target_swift_value_tag () Bool)
(assert (= source_swift_value_tag target_swift_value_tag))

; callback_ret_safe: source semantics (matches Coq)
(declare-fun source_callback_ret_safe () Bool)
(declare-fun target_callback_ret_safe () Bool)
(assert (= source_callback_ret_safe target_callback_ret_safe))

; callback_args_safe: source semantics (matches Coq)
(declare-fun source_callback_args_safe () Bool)
(declare-fun target_callback_args_safe () Bool)
(assert (= source_callback_args_safe target_callback_args_safe))

; callback_safe: source semantics (matches Coq)
(declare-fun source_callback_safe () Bool)
(declare-fun target_callback_safe () Bool)
(assert (= source_callback_safe target_callback_safe))

; callback_rejected: source semantics (matches Coq)
(declare-fun source_callback_rejected () Bool)
(declare-fun target_callback_rejected () Bool)
(assert (= source_callback_rejected target_callback_rejected))

; bridge_001_jni_roundtrip_int: translation preserves property (matches Coq: Theorem)
(declare-fun source_bridge_001_jni_roundtrip_int () Bool)
(declare-fun target_bridge_001_jni_roundtrip_int () Bool)
(assert (= source_bridge_001_jni_roundtrip_int target_bridge_001_jni_roundtrip_int))

; bridge_001_jni_roundtrip_bool: translation preserves property (matches Coq: Theorem)
(declare-fun source_bridge_001_jni_roundtrip_bool () Bool)
(declare-fun target_bridge_001_jni_roundtrip_bool () Bool)
(assert (= source_bridge_001_jni_roundtrip_bool target_bridge_001_jni_roundtrip_bool))

; bridge_001_swift_roundtrip_int: translation preserves property (matches Coq: Theorem)
(declare-fun source_bridge_001_swift_roundtrip_int () Bool)
(declare-fun target_bridge_001_swift_roundtrip_int () Bool)
(assert (= source_bridge_001_swift_roundtrip_int target_bridge_001_swift_roundtrip_int))

; bridge_001_swift_roundtrip_bool: translation preserves property (matches Coq: Theorem)
(declare-fun source_bridge_001_swift_roundtrip_bool () Bool)
(declare-fun target_bridge_001_swift_roundtrip_bool () Bool)
(assert (= source_bridge_001_swift_roundtrip_bool target_bridge_001_swift_roundtrip_bool))

; bridge_002_jni_pure_always_allowed: translation preserves property (matches Coq: Theorem)
(declare-fun source_bridge_002_jni_pure_always_allowed () Bool)
(declare-fun target_bridge_002_jni_pure_always_allowed () Bool)
(assert (= source_bridge_002_jni_pure_always_allowed target_bridge_002_jni_pure_always_allowed))

; bridge_002_jni_invalid_blocks_all: translation preserves property (matches Coq: Theorem)
(declare-fun source_bridge_002_jni_invalid_blocks_all () Bool)
(declare-fun target_bridge_002_jni_invalid_blocks_all () Bool)
(assert (= source_bridge_002_jni_invalid_blocks_all target_bridge_002_jni_invalid_blocks_all))

; bridge_002_jni_io_requires_io_cap: translation preserves property (matches Coq: Theorem)
(declare-fun source_bridge_002_jni_io_requires_io_cap () Bool)
(declare-fun target_bridge_002_jni_io_requires_io_cap () Bool)
(assert (= source_bridge_002_jni_io_requires_io_cap target_bridge_002_jni_io_requires_io_cap))

; bridge_003_swift_pure_always_allowed: translation preserves property (matches Coq: Theorem)
(declare-fun source_bridge_003_swift_pure_always_allowed () Bool)
(declare-fun target_bridge_003_swift_pure_always_allowed () Bool)
(assert (= source_bridge_003_swift_pure_always_allowed target_bridge_003_swift_pure_always_allowed))

; bridge_003_swift_net_requires_net: translation preserves property (matches Coq: Theorem)
(declare-fun source_bridge_003_swift_net_requires_net () Bool)
(declare-fun target_bridge_003_swift_net_requires_net () Bool)
(assert (= source_bridge_003_swift_net_requires_net target_bridge_003_swift_net_requires_net))

; bridge_003_swift_ui_requires_ui: translation preserves property (matches Coq: Theorem)
(declare-fun source_bridge_003_swift_ui_requires_ui () Bool)
(declare-fun target_bridge_003_swift_ui_requires_ui () Bool)
(assert (= source_bridge_003_swift_ui_requires_ui target_bridge_003_swift_ui_requires_ui))

; bridge_004_safe_call_requires_cap: translation preserves property (matches Coq: Theorem)
(declare-fun source_bridge_004_safe_call_requires_cap () Bool)
(declare-fun target_bridge_004_safe_call_requires_cap () Bool)
(assert (= source_bridge_004_safe_call_requires_cap target_bridge_004_safe_call_requires_cap))

; bridge_004_pure_call_always_safe: translation preserves property (matches Coq: Theorem)
(declare-fun source_bridge_004_pure_call_always_safe () Bool)
(declare-fun target_bridge_004_pure_call_always_safe () Bool)
(assert (= source_bridge_004_pure_call_always_safe target_bridge_004_pure_call_always_safe))

; bridge_005_error_is_safe: translation preserves property (matches Coq: Theorem)
(declare-fun source_bridge_005_error_is_safe () Bool)
(declare-fun target_bridge_005_error_is_safe () Bool)
(assert (= source_bridge_005_error_is_safe target_bridge_005_error_is_safe))

; bridge_005_ok_is_safe: translation preserves property (matches Coq: Theorem)
(declare-fun source_bridge_005_ok_is_safe () Bool)
(declare-fun target_bridge_005_ok_is_safe () Bool)
(assert (= source_bridge_005_ok_is_safe target_bridge_005_ok_is_safe))

; bridge_005_no_secret_leak: translation preserves property (matches Coq: Theorem)
(declare-fun source_bridge_005_no_secret_leak () Bool)
(declare-fun target_bridge_005_no_secret_leak () Bool)
(assert (= source_bridge_005_no_secret_leak target_bridge_005_no_secret_leak))

; bridge_006_jni_string_roundtrip_len: translation preserves property (matches Coq: Theorem)
(declare-fun source_bridge_006_jni_string_roundtrip_len () Bool)
(declare-fun target_bridge_006_jni_string_roundtrip_len () Bool)
(assert (= source_bridge_006_jni_string_roundtrip_len target_bridge_006_jni_string_roundtrip_len))

; bridge_006_jni_string_roundtrip_hash: translation preserves property (matches Coq: Theorem)
(declare-fun source_bridge_006_jni_string_roundtrip_hash () Bool)
(declare-fun target_bridge_006_jni_string_roundtrip_hash () Bool)
(assert (= source_bridge_006_jni_string_roundtrip_hash target_bridge_006_jni_string_roundtrip_hash))

; bridge_006_jni_string_is_utf8: translation preserves property (matches Coq: Theorem)
(declare-fun source_bridge_006_jni_string_is_utf8 () Bool)
(declare-fun target_bridge_006_jni_string_is_utf8 () Bool)
(assert (= source_bridge_006_jni_string_is_utf8 target_bridge_006_jni_string_is_utf8))

; bridge_006_jni_string_full_roundtrip: translation preserves property (matches Coq: Theorem)
(declare-fun source_bridge_006_jni_string_full_roundtrip () Bool)
(declare-fun target_bridge_006_jni_string_full_roundtrip () Bool)
(assert (= source_bridge_006_jni_string_full_roundtrip target_bridge_006_jni_string_full_roundtrip))

; bridge_006_rvalue_string_jni_roundtrip: translation preserves property (matches Coq: Theorem)
(declare-fun source_bridge_006_rvalue_string_jni_roundtrip () Bool)
(declare-fun target_bridge_006_rvalue_string_jni_roundtrip () Bool)
(assert (= source_bridge_006_rvalue_string_jni_roundtrip target_bridge_006_rvalue_string_jni_roundtrip))

; bridge_007_swift_type_preserved_int: translation preserves property (matches Coq: Theorem)
(declare-fun source_bridge_007_swift_type_preserved_int () Bool)
(declare-fun target_bridge_007_swift_type_preserved_int () Bool)
(assert (= source_bridge_007_swift_type_preserved_int target_bridge_007_swift_type_preserved_int))

; bridge_007_swift_type_preserved_bool: translation preserves property (matches Coq: Theorem)
(declare-fun source_bridge_007_swift_type_preserved_bool () Bool)
(declare-fun target_bridge_007_swift_type_preserved_bool () Bool)
(assert (= source_bridge_007_swift_type_preserved_bool target_bridge_007_swift_type_preserved_bool))

; bridge_007_swift_type_preserved_string: translation preserves property (matches Coq: Theorem)
(declare-fun source_bridge_007_swift_type_preserved_string () Bool)
(declare-fun target_bridge_007_swift_type_preserved_string () Bool)
(assert (= source_bridge_007_swift_type_preserved_string target_bridge_007_swift_type_preserved_string))

; bridge_007_swift_type_preserved_unit: translation preserves property (matches Coq: Theorem)
(declare-fun source_bridge_007_swift_type_preserved_unit () Bool)
(declare-fun target_bridge_007_swift_type_preserved_unit () Bool)
(assert (= source_bridge_007_swift_type_preserved_unit target_bridge_007_swift_type_preserved_unit))

; bridge_007_marshal_swift_type_safe: translation preserves property (matches Coq: Theorem)
(declare-fun source_bridge_007_marshal_swift_type_safe () Bool)
(declare-fun target_bridge_007_marshal_swift_type_safe () Bool)
(assert (= source_bridge_007_marshal_swift_type_safe target_bridge_007_marshal_swift_type_safe))

; bridge_007_unmarshal_swift_type_safe: translation preserves property (matches Coq: Theorem)
(declare-fun source_bridge_007_unmarshal_swift_type_safe () Bool)
(declare-fun target_bridge_007_unmarshal_swift_type_safe () Bool)
(assert (= source_bridge_007_unmarshal_swift_type_safe target_bridge_007_unmarshal_swift_type_safe))

; bridge_007_rvalue_string_swift_roundtrip: translation preserves property (matches Coq: Theorem)
(declare-fun source_bridge_007_rvalue_string_swift_roundtrip () Bool)
(declare-fun target_bridge_007_rvalue_string_swift_roundtrip () Bool)
(assert (= source_bridge_007_rvalue_string_swift_roundtrip target_bridge_007_rvalue_string_swift_roundtrip))

; bridge_008_pure_callback_safe: translation preserves property (matches Coq: Theorem)
(declare-fun source_bridge_008_pure_callback_safe () Bool)
(declare-fun target_bridge_008_pure_callback_safe () Bool)
(assert (= source_bridge_008_pure_callback_safe target_bridge_008_pure_callback_safe))

; bridge_008_public_args_safe: translation preserves property (matches Coq: Theorem)
(declare-fun source_bridge_008_public_args_safe () Bool)
(declare-fun target_bridge_008_public_args_safe () Bool)
(assert (= source_bridge_008_public_args_safe target_bridge_008_public_args_safe))

; bridge_008_secret_ret_rejected: translation preserves property (matches Coq: Theorem)
(declare-fun source_bridge_008_secret_ret_rejected () Bool)
(declare-fun target_bridge_008_secret_ret_rejected () Bool)
(assert (= source_bridge_008_secret_ret_rejected target_bridge_008_secret_ret_rejected))

; bridge_008_safe_not_rejected: translation preserves property (matches Coq: Theorem)
(declare-fun source_bridge_008_safe_not_rejected () Bool)
(declare-fun target_bridge_008_safe_not_rejected () Bool)
(assert (= source_bridge_008_safe_not_rejected target_bridge_008_safe_not_rejected))

; bridge_008_no_secret_through_safe_callback: translation preserves property (matches Coq: Theorem)
(declare-fun source_bridge_008_no_secret_through_safe_callback () Bool)
(declare-fun target_bridge_008_no_secret_through_safe_callback () Bool)
(assert (= source_bridge_008_no_secret_through_safe_callback target_bridge_008_no_secret_through_safe_callback))

; Verify all translation validations are satisfiable
(check-sat)
(exit)
